# avogadro generated ORCA input file 
# Basic Mode
# 
! B3LYP D3BJ def2-SVP TightSCF Freq

%basis
  NewGTO Li "def2-TZVP" end
end

* xyz 1 1
   C     -4.169465    1.291337   -0.031112
   O     -2.826472    0.786897   -0.126975
   H     -4.366533    2.007907   -0.841800
   H     -4.331576    1.760538    0.950228
   H     -4.818064    0.415535   -0.139602
   C     -1.822119    1.608008   -0.032041
   O     -0.685192    0.984212   -0.136718
   C      0.543267    1.726832   -0.057659
   H      0.618531    2.238663    0.912803
   H      0.605385    2.449641   -0.884354
   H      1.340824    0.982133   -0.151490
   O     -1.934215    2.835534    0.138456
   Li    -2.073181    4.528633    0.333263
*

