# avogadro generated ORCA input file 
# Basic Mode
# 
! B3LYP D3BJ def2-SVP TightSCF Opt

%basis
  NewGTO Li "def2-TZVP" end
end

* xyz 1 1
   C       -4.15999        1.26906       -0.00877
   O       -2.83868        0.73124       -0.04685
   H       -4.27497        2.08251       -0.73198
   H       -4.38736        1.61942        1.00216
   H       -4.86048        0.47154       -0.27095
   C       -1.82222        1.61958       -0.00902
   O       -0.66124        0.93147       -0.05750
   C        0.54064        1.70057       -0.03198
   H        0.71813        2.07404        0.98063
   H        0.49356        2.53028       -0.74427
   H        1.36970        1.04713       -0.31681
   O       -1.93461        2.84539        0.05866
  Li       -2.10129        4.69364        0.10968
*

