# avogadro generated ORCA input file 
# Basic Mode
# 
! B3LYP D3BJ def2-SVP TightSCF Opt

* xyz 1 1
   C       -7.81809        2.43388        0.05560
   C       -6.31433        2.32278        0.08425
   O       -8.24933        1.17071        0.45052
   H       -8.17723        2.61537       -0.98457
   H       -8.17994        3.24406        0.72343
   O       -6.05598        1.02991       -0.37085
   H       -5.94470        2.39926        1.13250
   H       -5.83797        3.10492       -0.54421
   C       -7.23223        0.38949       -0.04922
   O       -7.53071       -0.80607       -0.64108
  Li       -7.15244       -2.09140        0.64683
   C       -7.56798       -7.42255        0.58309
   O       -8.70068       -8.10534        0.77377
   O       -6.47836       -8.19360        0.52162
   C       -8.39389       -9.44282        0.85299
   C       -6.86359       -9.50374        0.67771
   H       -6.37407       -9.93390        1.57779
   H       -6.58700      -10.08531       -0.22788
   H       -8.91253       -9.99534        0.04025
   H       -8.69944       -9.83845        1.84543
   O       -7.53200       -6.20860        0.47521
*

