# avogadro generated ORCA input file 
# Basic Mode
# 
! B3LYP D3BJ def2-SVP TightSCF Opt

%basis
  NewGTO Li "def2-TZVP" end
end

* xyz 1 1
   C       -7.81800        2.52208        0.00945
   C       -6.32525        2.42797        0.05416
   O       -8.23091        1.21282        0.37313
   H       -8.19310        2.73760       -0.99662
   H       -8.21345        3.26511        0.70716
   O       -6.08168        1.06786       -0.27375
   H       -5.92422        2.62098        1.05478
   H       -5.84012        3.09611       -0.66242
   C       -7.20446        0.37947        0.06024
   O       -7.28147       -0.84819        0.07737
  Li       -7.38145       -2.67181        0.10100
*
