# avogadro generated ORCA input file 
# Basic Mode
# 
! B3LYP D3BJ def2-SVP TightSCF Freq

%basis
  NewGTO Li "def2-TZVP" end
end

* xyz 1 1
   C     -7.838869    2.537876    0.009965
   C     -6.302178    2.438158    0.053331
   O     -8.252298    1.157218    0.172246
   H     -8.231086    2.895767   -0.952450
   H     -8.272134    3.125146    0.829102
   O     -6.072348    1.011596   -0.069864
   H     -5.864861    2.768548    1.006101
   H     -5.797763    2.941124   -0.781049
   C     -7.209465    0.364552    0.061126
   O     -7.288795   -0.857322    0.077756
   Li    -7.364314   -2.572663    0.098235
*

