# avogadro generated ORCA input file 
# Basic Mode
# 
! B3LYP D3BJ def2-SVP TightSCF Opt

* xyz 0 1
   C       -4.14560        1.25681        0.00014
   O       -2.84000        0.68173        0.00683
   H       -4.21189        2.11726       -0.67347
   H       -4.42809        1.54192        1.01769
   H       -4.84580        0.49535       -0.35513
   C       -1.82310        1.57856        0.01416
   O       -0.65610        0.88859       -0.00347
   C        0.51935        1.69702       -0.02197
   H        0.76473        2.01259        0.99618
   H        0.41178        2.56620       -0.67880
   H        1.34127        1.08501       -0.40437
   O       -1.93842        2.79472        0.03435
*

