# avogadro generated ORCA input file 
# Basic Mode
# 
! B3LYP D3BJ def2-SVP TightSCF Opt

* xyz 0 1
   C       -7.81403        2.54838        0.00798
   C       -6.32558        2.42920        0.05509
   O       -8.24785        1.25604        0.38736
   H       -8.18540        2.76082       -1.00022
   H       -8.19528        3.30702        0.69682
   O       -6.10500        1.07367       -0.28578
   H       -5.92266        2.60853        1.05758
   H       -5.82947        3.09684       -0.65451
   C       -7.23849        0.39422        0.06200
   O       -7.33631       -0.82045        0.07967
*

