# avogadro generated ORCA input file 
# Basic Mode
# 
! PBE D3BJ def2-SVP TightSCF SP

* xyz 0 1
   C     -7.833484    2.561867    0.010245
   C     -6.304225    2.439254    0.052347
   O     -8.261593    1.230465    0.283592
   H     -8.204738    2.867008   -0.982867
   H     -8.242803    3.239680    0.772126
   O     -6.095417    1.049242   -0.181691
   H     -5.886672    2.709402    1.037199
   H     -5.793333    3.020856   -0.727510
   C     -7.241270    0.360223    0.062489
   O     -7.336534   -0.823727    0.080060
*

